c Created with the Wolfram Language : www.wolfram.com
c 
p edge 80 470
e 1 4
e 3 4
e 2 6
e 1 7
e 6 7
e 7 8
e 5 9
e 7 9
e 8 9
e 8 11
e 9 11
e 2 13
e 5 13
e 10 13
e 11 13
e 12 13
e 1 14
e 3 14
e 4 14
e 6 14
e 5 15
e 6 17
e 16 17
e 1 18
e 2 18
e 9 18
e 12 18
e 14 19
e 17 19
e 14 20
e 1 21
e 4 21
e 7 21
e 11 21
e 16 21
e 5 22
e 18 22
e 6 23
e 7 23
e 12 23
e 20 23
e 6 24
e 12 24
e 9 25
e 20 25
e 1 26
e 5 26
e 6 26
e 8 26
e 21 26
e 23 26
e 24 26
e 7 27
e 12 27
e 16 27
e 21 28
e 26 28
e 5 29
e 1 30
e 4 30
e 14 30
e 17 30
e 19 30
e 23 30
e 26 30
e 1 31
e 3 31
e 20 31
e 23 31
e 30 31
e 2 32
e 16 32
e 17 32
e 21 32
e 22 32
e 1 33
e 3 33
e 9 33
e 25 33
e 30 33
e 14 34
e 18 34
e 22 34
e 33 34
e 3 35
e 8 35
e 10 35
e 25 35
e 30 35
e 8 36
e 18 36
e 26 36
e 32 36
e 6 37
e 16 37
e 17 37
e 20 37
e 24 37
e 29 37
e 32 37
e 12 38
e 13 38
e 30 38
e 31 38
e 34 38
e 5 39
e 19 39
e 38 39
e 13 40
e 21 40
e 22 40
e 31 40
e 32 40
e 36 40
e 7 41
e 12 41
e 15 41
e 19 41
e 20 41
e 23 41
e 35 41
e 36 41
e 2 42
e 3 42
e 4 42
e 28 42
e 32 42
e 36 42
e 37 42
e 9 43
e 13 43
e 22 43
e 26 43
e 30 43
e 41 43
e 10 44
e 12 44
e 18 44
e 31 44
e 40 44
e 42 44
e 2 45
e 8 45
e 15 45
e 25 45
e 31 45
e 32 45
e 11 46
e 15 46
e 22 46
e 36 46
e 43 46
e 45 46
e 4 47
e 20 47
e 21 47
e 22 47
e 23 47
e 26 47
e 31 47
e 35 47
e 36 47
e 44 47
e 3 48
e 11 48
e 15 48
e 21 48
e 22 48
e 27 48
e 35 48
e 44 48
e 1 49
e 6 49
e 8 49
e 12 49
e 17 49
e 24 49
e 27 49
e 28 49
e 29 49
e 35 49
e 36 49
e 14 50
e 27 50
e 28 50
e 38 50
e 9 51
e 17 51
e 20 51
e 26 51
e 32 51
e 34 51
e 10 52
e 11 52
e 21 52
e 29 52
e 30 52
e 34 52
e 35 52
e 37 52
e 38 52
e 4 53
e 5 53
e 6 53
e 19 53
e 28 53
e 36 53
e 42 53
e 2 54
e 10 54
e 12 54
e 15 54
e 18 54
e 27 54
e 28 54
e 36 54
e 41 54
e 42 54
e 46 54
e 49 54
e 5 55
e 15 55
e 35 55
e 42 55
e 43 55
e 45 55
e 47 55
e 52 55
e 14 56
e 20 56
e 33 56
e 43 56
e 49 56
e 6 57
e 8 57
e 20 57
e 22 57
e 45 57
e 47 57
e 2 58
e 20 58
e 21 58
e 28 58
e 29 58
e 38 58
e 40 58
e 43 58
e 46 58
e 56 58
e 4 59
e 23 59
e 33 59
e 36 59
e 48 59
e 51 59
e 1 60
e 9 60
e 10 60
e 15 60
e 21 60
e 31 60
e 32 60
e 49 60
e 54 60
e 2 61
e 5 61
e 6 61
e 19 61
e 22 61
e 35 61
e 46 61
e 56 61
e 58 61
e 3 62
e 10 62
e 15 62
e 17 62
e 26 62
e 38 62
e 40 62
e 46 62
e 51 62
e 3 63
e 8 63
e 10 63
e 12 63
e 20 63
e 23 63
e 25 63
e 39 63
e 41 63
e 44 63
e 50 63
e 5 64
e 11 64
e 27 64
e 34 64
e 40 64
e 43 64
e 50 64
e 52 64
e 2 65
e 4 65
e 10 65
e 17 65
e 19 65
e 24 65
e 30 65
e 44 65
e 4 66
e 17 66
e 22 66
e 24 66
e 29 66
e 31 66
e 39 66
e 52 66
e 61 66
e 3 67
e 8 67
e 10 67
e 13 67
e 16 67
e 19 67
e 21 67
e 27 67
e 30 67
e 33 67
e 35 67
e 42 67
e 44 67
e 46 67
e 53 67
e 54 67
e 60 67
e 10 68
e 14 68
e 18 68
e 50 68
e 51 68
e 57 68
e 2 69
e 8 69
e 11 69
e 30 69
e 40 69
e 43 69
e 51 69
e 53 69
e 55 69
e 57 69
e 60 69
e 64 69
e 6 70
e 19 70
e 29 70
e 34 70
e 44 70
e 45 70
e 47 70
e 52 70
e 55 70
e 68 70
e 4 71
e 7 71
e 22 71
e 34 71
e 40 71
e 42 71
e 59 71
e 69 71
e 5 72
e 11 72
e 13 72
e 28 72
e 34 72
e 35 72
e 39 72
e 59 72
e 65 72
e 66 72
e 2 73
e 6 73
e 21 73
e 34 73
e 40 73
e 43 73
e 46 73
e 48 73
e 50 73
e 53 73
e 64 73
e 11 74
e 12 74
e 27 74
e 33 74
e 36 74
e 38 74
e 42 74
e 43 74
e 48 74
e 60 74
e 61 74
e 69 74
e 73 74
e 2 75
e 9 75
e 10 75
e 13 75
e 14 75
e 23 75
e 41 75
e 42 75
e 43 75
e 46 75
e 49 75
e 55 75
e 58 75
e 59 75
e 64 75
e 72 75
e 14 76
e 25 76
e 41 76
e 42 76
e 52 76
e 66 76
e 67 76
e 73 76
e 19 77
e 21 77
e 23 77
e 24 77
e 25 77
e 48 77
e 56 77
e 57 77
e 1 78
e 10 78
e 11 78
e 25 78
e 27 78
e 34 78
e 35 78
e 44 78
e 45 78
e 48 78
e 50 78
e 66 78
e 68 78
e 77 78
e 17 79
e 37 79
e 39 79
e 50 79
e 61 79
e 73 79
e 78 79
e 1 80
e 3 80
e 5 80
e 8 80
e 15 80
e 20 80
e 42 80
e 49 80
e 51 80
e 55 80
e 59 80
e 65 80
